(set-info :smt-lib-version 2.6)
(set-logic UF)
(set-info :source |Benchmarks from the paper: "Extending Sledgehammer with SMT Solvers" by Jasmin Blanchette, Sascha Bohme, and Lawrence C. Paulson, CADE 2011.  Translated to SMT2 by Andrew Reynolds and Morgan Deters.|)
(set-info :category "industrial")
(set-info :status unsat)
(declare-sort S1 0)
(declare-sort S2 0)
(declare-sort S3 0)
(declare-sort S4 0)
(declare-sort S5 0)
(declare-sort S6 0)
(declare-sort S7 0)
(declare-sort S8 0)
(declare-sort S9 0)
(declare-sort S10 0)
(declare-sort S11 0)
(declare-sort S12 0)
(declare-sort S13 0)
(declare-fun f1 () S1)
(declare-fun f2 () S1)
(declare-fun f3 (S3 S2) S1)
(declare-fun f4 (S4 S2) S3)
(declare-fun f5 () S4)
(declare-fun f6 (S6 S5) S1)
(declare-fun f7 (S5) S6)
(declare-fun f8 () S4)
(declare-fun f9 (S7) S4)
(declare-fun f10 () S7)
(declare-fun f11 (S8 S6) S6)
(declare-fun f12 (S5) S8)
(declare-fun f13 (S2) S4)
(declare-fun f14 (S4 S2) S4)
(declare-fun f15 () S6)
(declare-fun f16 (S6 S6) S1)
(declare-fun f17 (S5) S8)
(declare-fun f18 (S9 S4) S5)
(declare-fun f19 (S10 S7) S9)
(declare-fun f20 (S11 S4) S10)
(declare-fun f21 () S11)
(declare-fun f22 () S6)
(declare-fun f23 (S12 S7) S5)
(declare-fun f24 () S12)
(declare-fun f25 (S6) S6)
(declare-fun f26 (S5 S6) S1)
(declare-fun f27 (S13 S6) S5)
(declare-fun f28 () S13)
(declare-fun f29 () S6)
(assert (not (= f1 f2)))
(assert (forall ((?v0 S2) (?v1 S2)) (= (= (f3 (f4 f5 ?v0) ?v1) f1) (= ?v0 ?v1))))
(assert (forall ((?v0 S5) (?v1 S5)) (= (= (f6 (f7 ?v0) ?v1) f1) (= ?v1 ?v0))))
(assert (forall ((?v0 S2) (?v1 S2)) (= (= (f3 (f4 f8 ?v0) ?v1) f1) (forall ((?v2 S2)) (=> (= (f3 (f4 (f9 f10) ?v1) ?v2) f1) (= ?v0 ?v2))))))
(assert (forall ((?v0 S5) (?v1 S6) (?v2 S5)) (= (= (f6 (f11 (f12 ?v0) ?v1) ?v2) f1) (and (= ?v2 ?v0) (= (f6 ?v1 ?v2) f1)))))
(assert (forall ((?v0 S2) (?v1 S2) (?v2 S2)) (= (= (f3 (f4 (f13 ?v0) ?v1) ?v2) f1) (= ?v2 ?v0))))
(assert (forall ((?v0 S4) (?v1 S2) (?v2 S2)) (= (f4 (f14 ?v0 ?v1) ?v2) (f4 ?v0 ?v1))))
(assert (forall ((?v0 S5)) (= (= (f6 f15 ?v0) f1) false)))
(assert (forall ((?v0 S6) (?v1 S4) (?v2 S7) (?v3 S4) (?v4 S4) (?v5 S4)) (=> (= (f16 ?v0 (f11 (f17 (f18 (f19 (f20 f21 ?v1) ?v2) ?v3)) f22)) f1) (=> (forall ((?v6 S2) (?v7 S2)) (=> (= (f3 (f4 ?v4 ?v6) ?v7) f1) (forall ((?v8 S2)) (=> (forall ((?v9 S2)) (=> (= (f3 (f4 ?v1 ?v9) ?v7) f1) (= (f3 (f4 ?v3 ?v9) ?v8) f1))) (= (f3 (f4 ?v5 ?v6) ?v8) f1))))) (= (f16 ?v0 (f11 (f17 (f18 (f19 (f20 f21 ?v4) ?v2) ?v5)) f22)) f1)))))
(assert (forall ((?v0 S7)) (= (f23 f24 ?v0) (f18 (f19 (f20 f21 f5) ?v0) (f9 ?v0)))))
(assert (forall ((?v0 S5) (?v1 S6)) (not (= (f11 (f17 ?v0) ?v1) f22))))
(assert (= f22 (f25 f15)))
(assert (forall ((?v0 S5)) (= (f25 (f7 ?v0)) (f11 (f17 ?v0) f22))))
(assert (forall ((?v0 S4) (?v1 S6) (?v2 S7) (?v3 S4)) (=> (forall ((?v4 S2) (?v5 S2)) (=> (= (f3 (f4 ?v0 ?v4) ?v5) f1) (= (f16 ?v1 (f11 (f17 (f18 (f19 (f20 f21 (f13 ?v5)) ?v2) (f14 ?v3 ?v4))) f22)) f1))) (= (f16 ?v1 (f11 (f17 (f18 (f19 (f20 f21 ?v0) ?v2) ?v3)) f22)) f1))))
(assert (forall ((?v0 S5) (?v1 S6)) (= (f25 (f11 (f12 ?v0) ?v1)) (ite (= (f6 ?v1 ?v0) f1) (f11 (f17 ?v0) f22) f22))))
(assert (forall ((?v0 S6)) (= (= (f25 ?v0) f22) (forall ((?v1 S5)) (not (= (f6 ?v0 ?v1) f1))))))
(assert (forall ((?v0 S5) (?v1 S5)) (= (= (f26 ?v0 (f11 (f17 ?v1) f22)) f1) (= ?v0 ?v1))))
(assert (forall ((?v0 S5)) (= (f27 f28 (f11 (f17 ?v0) f22)) ?v0)))
(assert (not (=> (= (f16 f29 (f11 (f17 (f23 f24 f10)) f22)) f1) (= (f16 f29 (f11 (f17 (f18 (f19 (f20 f21 f8) f10) f5)) f22)) f1))))
(check-sat)
(exit)
